data/solutions/planning/wellformed/moderate/weighting/wellformed_moderate_instance10_cplex.sol
Elapsed time: 0.12
Nodes explored: 1793
Nodes left: 223
Relative gap: 0.008
Upper bound: 36158.0
Lower bound: 36155
C[0]=5166.0
C[1]=5165.0
C[2]=5164.0
y[0]=2
y[1]=0
y[2]=0
y[3]=0
y[4]=2
y[5]=2
y[6]=2
y[7]=2
y[8]=2
y[9]=2
y[10]=0
y[11]=0
y[12]=0
y[13]=2
y[14]=1
y[15]=0
y[16]=1
y[17]=2
y[18]=2
y[19]=0
y[20]=1
y[21]=1
y[22]=1
y[23]=1
y[24]=0
y[25]=1
y[26]=0
y[27]=0
y[28]=1
y[29]=1
