data/solutions/planning/wellformed/moderate/weighting/wellformed_moderate_instance10_cplex.log

Log started (V12.6.3.0) Fri Mar  2 12:42:23 2018

New value for default parallel thread count: 1

Problem '/tmp/tmpwS_qSa.pyomo.lp' read.
Read time = 0.00 sec. (0.01 ticks)

Problem name         : /tmp/tmpwS_qSa.pyomo.lp
Objective sense      : Minimize
Variables            :      94  [Nneg: 4,  Binary: 90]
Objective nonzeros   :       3
Linear constraints   :      36  [Less: 2,  Equal: 34]
  Nonzeros           :     188
  RHS nonzeros       :      31

Variables            : Min LB: 0.000000         Max UB: 1.000000       
Objective nonzeros   : Min   : 1.000000         Max   : 4.000000       
Linear constraints   :
  Nonzeros           : Min   : 1.000000         Max   : 977.0000       
  RHS nonzeros       : Min   : 1.000000         Max   : 1.000000       
Found incumbent of value 61980.000000 after 0.00 sec. (0.01 ticks)
Tried aggregator 2 times.
MIP Presolve eliminated 1 rows and 1 columns.
Aggregator did 2 substitutions.
Reduced MIP has 33 rows, 91 columns, and 183 nonzeros.
Reduced MIP has 90 binaries, 0 generals, 0 SOSs, and 0 indicators.
Presolve time = 0.00 sec. (0.22 ticks)
Probing fixed 0 vars, tightened 2 bounds.
Probing time = 0.00 sec. (0.09 ticks)
Tried aggregator 1 time.
Reduced MIP has 33 rows, 91 columns, and 183 nonzeros.
Reduced MIP has 90 binaries, 1 generals, 0 SOSs, and 0 indicators.
Presolve time = 0.00 sec. (0.12 ticks)
Probing time = 0.00 sec. (0.06 ticks)
Clique table members: 30.
MIP emphasis: balance optimality and feasibility.
MIP search method: dynamic search.
Parallel mode: none, using 1 thread.
Root relaxation solution time = 0.00 sec. (0.09 ticks)

        Nodes                                         Cuts/
   Node  Left     Objective  IInf  Best Integer    Best Bound    ItCnt     Gap

*     0+    0                        61980.0000        0.0000           100.00%
      0     0    36155.0000     4    61980.0000    36155.0000       10   41.67%
*     0+    0                        36997.0000    36155.0000             2.28%
      0     0    36155.0000     6    36997.0000       Cuts: 6       15    2.28%
*     0+    0                        36894.0000    36155.0000             2.00%
      0     0    36155.0000     6    36894.0000       Cuts: 6       23    2.00%
*     0+    0                        36696.0000    36155.0000             1.47%
*     0+    0                        36164.0000    36155.0000             0.02%
      0     2    36155.0000     6    36164.0000    36155.0000       23    0.02%
Elapsed time = 0.00 sec. (2.21 ticks, tree = 0.01 MB, solutions = 5)
*   118    54      integral     0    36159.0000    36155.0000      219    0.01%
*  1792   224      integral     0    36158.0000    36155.0000     2571    0.01%

Cover cuts applied:  98
Gomory fractional cuts applied:  1

Root node processing (before b&c):
  Real time             =    0.00 sec. (2.21 ticks)
Sequential b&c:
  Real time             =    0.10 sec. (125.76 ticks)
                          ------------
Total (root+branch&cut) =    0.11 sec. (127.97 ticks)

Solution pool: 7 solutions saved.

MIP - Integer optimal, tolerance (0.0001/1e-06):  Objective =  3.6158000000e+04
Current MIP best bound =  3.6155000000e+04 (gap = 3, 0.01%)
Solution time =    0.11 sec.  Iterations = 2571  Nodes = 1793 (223)
Deterministic time = 127.97 ticks  (1182.80 ticks/sec)


Incumbent solution written to file '/tmp/tmpaYTcx5.cplex.sol'.
